%chk=BH-0.9-MP2-G.chk
#p RHF/aug-cc-pVQZ MP2=FC

BH RMP2 at 0.9 Angstrom

0 1
 B	0.0	0.0	0.0
 H	0.9	0.0	0.0




