%chk=BH-1.3-MP2-G.chk
#p RHF/aug-cc-pVQZ MP2=FC

BH RMP2 at 1.3 Angstrom

0 1
 B	0.0	0.0	0.0
 H	1.3	0.0	0.0




