%chk=BH-1.8-MP2-G.chk
#p RHF/aug-cc-pVQZ MP2=FC

BH RMP2 at 1.8 Angstrom

0 1
 B	0.0	0.0	0.0
 H	1.8	0.0	0.0




