%chk=BH-2.8-MP2-G.chk
#p RHF/aug-cc-pVQZ MP2=FC

BH RMP2 at 2.8 Angstrom

0 1
 B	0.0	0.0	0.0
 H	2.8	0.0	0.0




