! MP2 aug-cc-pVQZ pal8 VeryTightSCF UseSym MOread

%moinp "BH-2.2-O.gbw"

*xyz 0 1
 B	0.0	0.0	0.0
 H	2.2	0.0	0.0
*