%chk=BH-3.4-MP2-G.chk
#p RHF/aug-cc-pVQZ MP2=FC

BH RMP2 at 3.4 Angstrom

0 1
 B	0.0	0.0	0.0
 H	3.4	0.0	0.0




