%chk=BH-3.6-MP2-G.chk
#p RHF/aug-cc-pVQZ MP2=FC

BH RMP2 at 3.6 Angstrom

0 1
 B	0.0	0.0	0.0
 H	3.6	0.0	0.0




