%chk=BH-3.0-MP2-G.chk
#p RHF/aug-cc-pVQZ MP2=FC

BH RMP2 at 3.0 Angstrom

0 1
 B	0.0	0.0	0.0
 H	3.0	0.0	0.0




