! MP2 aug-cc-pVQZ pal8 VeryTightSCF UseSym MOread

%moinp "BH-3.4-O.gbw"

*xyz 0 1
 B	0.0	0.0	0.0
 H	3.4	0.0	0.0
*