%chk=BH-3.8-MP2-G.chk
#p RHF/aug-cc-pVQZ MP2=FC

BH RMP2 at 3.8 Angstrom

0 1
 B	0.0	0.0	0.0
 H	3.8	0.0	0.0




