! MP2 aug-cc-pVQZ pal8 VeryTightSCF UseSym MOread

%moinp "BH-4.4-O.gbw"

*xyz 0 1
 B	0.0	0.0	0.0
 H	4.4	0.0	0.0
*