%chk=BH-5.4-MP2-G.chk
#p RHF/aug-cc-pVQZ MP2=FC

BH RMP2 at 5.4 Angstrom

0 1
 B	0.0	0.0	0.0
 H	5.4	0.0	0.0




