%chk=BH-5.6-MP2-G.chk
#p RHF/aug-cc-pVQZ MP2=FC

BH RMP2 at 5.6 Angstrom

0 1
 B	0.0	0.0	0.0
 H	5.6	0.0	0.0




