! MP2 aug-cc-pVQZ pal8 VeryTightSCF UseSym MOread

%moinp "BH-6.0-O.gbw"

*xyz 0 1
 B	0.0	0.0	0.0
 H	6.0	0.0	0.0
*