%chk=/apps/users/lcz/exe4/task4/tBuOOH.chk
#p UM062X/6-31g(d) nosymm guess=mix stable=opt 

tBuOOH

0 1
 C                 -3.59884905   -0.46309118    0.23506081
 C                 -2.08478105   -0.46309118    0.23506081
 H                 -3.98739905    0.58356382    0.23506081
 H                 -3.98741505   -0.98729218   -0.67085119
 H                 -3.99074505   -0.98545318    1.14084881
 C                 -1.55163505   -1.87971818    0.20051281
 C                 -1.55200905    0.27730782    1.44348281
 H                 -0.43549405   -1.87439018    0.17452481
 H                 -1.88130205   -2.44463118    1.10556781
 H                 -1.92633405   -2.41406118   -0.70532619
 H                 -1.88231505   -0.22212818    2.38604681
 H                 -0.43586305    0.29677882    1.42630981
 H                 -1.92653205    1.32904582    1.45103181
 O                 -1.63556929    0.21490382   -0.94113287
 O                 -2.28263908   -0.69037825   -2.48118646
 H                 -1.98112380   -0.23518394   -3.27079819




