! RKS B3LYP/G def2-SVP NoRI miniprint pal8

%TDDFT  
    NRoots      18
    TDA         false
    printlevel  3
end

# benzeneDimer TDDFT

*xyz 0 1
 C    0.275339664905    -0.458399102833    2.743143403700
 C    1.279006847437    0.228940885018    2.053971964849
 C    0.939622874510    1.231612429254    1.139882080053
 C    -0.402424351875    1.548739845978    0.916642984919
 C    -1.406698760230    0.863818487970    1.607817662361
 C    -1.068977646094    -0.140122820687    2.520286918876
 H    0.539603706561    -1.241898862747    3.454437267994
 H    2.326588004763    -0.022157300550    2.223964486000
 H    1.720832792185    1.755051800886    0.589301977320
 H    -0.666403863041    2.316697890287    0.190217604195
 H    -2.454419062639    1.106539982179    1.427829033755
 H    -1.852402130973    -0.676071740128    3.057547529767
 C    0.408637071405    -1.547138908805    -0.917226197790
 C    1.408439887136    -0.859383018412    -1.612070091004
 C    1.064503595865    0.142964356786    -2.523961075999
 C    -0.281557623713    0.456819421173    -2.742536095802
 C    -1.280735610329    -0.233330090254    -2.049663508775
 C    -0.935147882928    -1.234436127477    -1.136182768651
 H    0.677439446996    -2.313917010173    -0.191321675612
 H    2.457518043610    -1.098728344182    -1.435489418777
 H    1.844432727521    0.681106942624    -3.064104221734
 H    -0.550678756658    1.239051458125    -3.453403954344
 H    -2.329668169039    0.014352845763    -2.216299435382
 H    -1.712850805428    -1.760113019904    -0.582784469921
*
