%oldchk=BH-0.9-UHF-G.chk
%chk=BH-0.9-UCCSD_T-G.chk
#p UHF/aug-cc-pVQZ guess=read CCSD(T,FC)

BH UCCSD at 0.9 Angstrom

0 1
 B	0.0	0.0	0.0
 H	0.9	0.0	0.0




