! UHF CCSD(T) aug-cc-pVQZ VeryTightSCF MOread

%moinp "BH-0.8-UHF-O.gbw"

*xyz 0 1
 B	0.0	0.0	0.0
 H	0.8	0.0	0.0
*