%oldchk=BH-1.2-UHF-G.chk
%chk=BH-1.2-UCCSD_T-G.chk
#p UHF/aug-cc-pVQZ guess=read CCSD(T,FC)

BH UCCSD at 1.2 Angstrom

0 1
 B	0.0	0.0	0.0
 H	1.2	0.0	0.0




