! UHF CCSD(T) aug-cc-pVQZ VeryTightSCF MOread

%moinp "BH-1.4-UHF-O.gbw"

*xyz 0 1
 B	0.0	0.0	0.0
 H	1.4	0.0	0.0
*