%oldchk=BH-1.8-UHF-G.chk
%chk=BH-1.8-UCCSD_T-G.chk
#p UHF/aug-cc-pVQZ guess=read CCSD(T,FC)

BH UCCSD at 1.8 Angstrom

0 1
 B	0.0	0.0	0.0
 H	1.8	0.0	0.0




