%oldchk=BH-2.0-UHF-G.chk
%chk=BH-2.0-UCCSD_T-G.chk
#p UHF/aug-cc-pVQZ guess=read CCSD(T,FC)

BH UCCSD at 2.0 Angstrom

0 1
 B	0.0	0.0	0.0
 H	2.0	0.0	0.0




