! UHF CCSD(T) aug-cc-pVQZ VeryTightSCF MOread

%moinp "BH-2.2-UHF-O.gbw"

*xyz 0 1
 B	0.0	0.0	0.0
 H	2.2	0.0	0.0
*