%chk=BH-2.4-UHF-G.chk
#p UHF/aug-cc-pVQZ guess=mix stable=opt

BH UHF at 2.4 Angstrom

0 1
 B	0.0	0.0	0.0
 H	2.4	0.0	0.0




