%chk=BH-2.2-UHF-G.chk
#p UHF/aug-cc-pVQZ guess=mix stable=opt

BH UHF at 2.2 Angstrom

0 1
 B	0.0	0.0	0.0
 H	2.2	0.0	0.0




