! UHF CCSD(T) aug-cc-pVQZ VeryTightSCF MOread

%moinp "BH-3.6-UHF-O.gbw"

*xyz 0 1
 B	0.0	0.0	0.0
 H	3.6	0.0	0.0
*