%oldchk=BH-4.0-UHF-G.chk
%chk=BH-4.0-UCCSD_T-G.chk
#p UHF/aug-cc-pVQZ guess=read CCSD(T,FC)

BH UCCSD at 4.0 Angstrom

0 1
 B	0.0	0.0	0.0
 H	4.0	0.0	0.0




