! UHF CCSD(T) aug-cc-pVQZ VeryTightSCF MOread

%moinp "BH-4.0-UHF-O.gbw"

*xyz 0 1
 B	0.0	0.0	0.0
 H	4.0	0.0	0.0
*