! UHF CCSD(T) aug-cc-pVQZ VeryTightSCF MOread

%moinp "BH-5.8-UHF-O.gbw"

*xyz 0 1
 B	0.0	0.0	0.0
 H	5.8	0.0	0.0
*