%oldchk=BH-5.6-UHF-G.chk
%chk=BH-5.6-UCCSD_T-G.chk
#p UHF/aug-cc-pVQZ guess=read CCSD(T,FC)

BH UCCSD at 5.6 Angstrom

0 1
 B	0.0	0.0	0.0
 H	5.6	0.0	0.0




