%oldchk=BH-5.0-UHF-G.chk
%chk=BH-5.0-UCCSD_T-G.chk
#p UHF/aug-cc-pVQZ guess=read CCSD(T,FC)

BH UCCSD at 5.0 Angstrom

0 1
 B	0.0	0.0	0.0
 H	5.0	0.0	0.0




