%oldchk=BH-5.8-UHF-G.chk
%chk=BH-5.8-UCCSD_T-G.chk
#p UHF/aug-cc-pVQZ guess=read CCSD(T,FC)

BH UCCSD at 5.8 Angstrom

0 1
 B	0.0	0.0	0.0
 H	5.8	0.0	0.0




