! RHF MP2 cc-pVDZ pal8
! NoFrozenCore            

*xyz 0 1
  C   -0.84533195991773      0.95631204799741      0.86695688758137
  C   0.46296917953950      0.89055132107898      0.41153738968092
  C   1.06498249109929      2.05041746604826     -0.04872626223504
  C   0.38682375533153      3.25825741761093     -0.05957630313133
  C   -0.92916629483352      3.32496446678289      0.39786117470048
  C   -1.53691904595740      2.15806885302784      0.86178357772044
  H   -1.33177779310003      0.05786162666320      1.22288286662819
  H   1.00911644617855     -0.04137764481499      0.41174217012473
  H   0.89340943637666      4.14652768979640     -0.40661874558071
  H   -2.56260459262502      2.18503471734340      1.20271069002731
  C   -1.66709331376272      4.62322731007777      0.38662794093699
  C   -2.42161858132883      5.01473379007752      1.49250102782185
  C   -1.61923201631221      5.46623475990715     -0.72389685760276
  C   -3.10577169358506      6.21908872396761      1.47479389475736
  H   -2.46369194088787      4.39499072034369      2.37581764658229
  C   -2.30901947987771      6.66904435935388     -0.72694800403690
  H   -1.05555752795261      5.17208444276276     -1.59838613456934
  C   -3.05941590604282      7.05751618377553      0.37275066068088
  H   -2.26865845182014      7.30948735218955     -1.59800079723894
  H   -3.60007805771479      7.99261925989212      0.37887337421372
  Cl  2.70997882629083      1.99495162290832     -0.61716762133114
  Cl  -4.03387825909787      6.68923511320967      2.87110846426962
*
