#p UHF/STO-3G nosymm

H2 UHF SP

0 1
H   0.0     0.0     0.0
H   2.0     0.0     0.0





