%oldchk=BH-0.9-RHF-G.chk
%chk=BH-0.9-CCSD-G.chk
#p RHF/aug-cc-pVQZ guess=read CCSD=FC

BH RHF at 0.9 Angstrom

0 1
 B	0.0	0.0	0.0
 H	0.9	0.0	0.0




