%chk=BH-0.9-RHF-G.chk
#p RHF/aug-cc-pVQZ

BH RHF at 0.9 Angstrom

0 1
 B	0.0	0.0	0.0
 H	0.9	0.0	0.0




