%chk=BH-1.1-RHF-G.chk
#p RHF/aug-cc-pVQZ

BH RHF at 1.1 Angstrom

0 1
 B	0.0	0.0	0.0
 H	1.1	0.0	0.0




