%oldchk=BH-1.3-RHF-G.chk
%chk=BH-1.3-CCSD-G.chk
#p RHF/aug-cc-pVQZ guess=read CCSD=FC

BH RHF at 1.3 Angstrom

0 1
 B	0.0	0.0	0.0
 H	1.3	0.0	0.0




