%oldchk=BH-2.4-RHF-G.chk
%chk=BH-2.4-CCSD-G.chk
#p RHF/aug-cc-pVQZ guess=read CCSD=FC

BH RHF at 2.4 Angstrom

0 1
 B	0.0	0.0	0.0
 H	2.4	0.0	0.0




