%oldchk=BH-2.8-RHF-G.chk
%chk=BH-2.8-CCSD-G.chk
#p RHF/aug-cc-pVQZ guess=read CCSD=FC

BH RHF at 2.8 Angstrom

0 1
 B	0.0	0.0	0.0
 H	2.8	0.0	0.0




