%oldchk=BH-2.6-RHF-G.chk
%chk=BH-2.6-CCSD-G.chk
#p RHF/aug-cc-pVQZ guess=read CCSD=FC

BH RHF at 2.6 Angstrom

0 1
 B	0.0	0.0	0.0
 H	2.6	0.0	0.0




