%chk=BH-3.0-RHF-G.chk
#p RHF/aug-cc-pVQZ

BH RHF at 3.0 Angstrom

0 1
 B	0.0	0.0	0.0
 H	3.0	0.0	0.0




