%chk=BH-3.6-RHF-G.chk
#p RHF/aug-cc-pVQZ

BH RHF at 3.6 Angstrom

0 1
 B	0.0	0.0	0.0
 H	3.6	0.0	0.0




