%chk=BH-3.4-RHF-G.chk
#p RHF/aug-cc-pVQZ

BH RHF at 3.4 Angstrom

0 1
 B	0.0	0.0	0.0
 H	3.4	0.0	0.0




