%oldchk=BH-4.2-RHF-G.chk
%chk=BH-4.2-CCSD-G.chk
#p RHF/aug-cc-pVQZ guess=read CCSD=FC

BH RHF at 4.2 Angstrom

0 1
 B	0.0	0.0	0.0
 H	4.2	0.0	0.0




