%chk=BH-4.6-RHF-G.chk
#p RHF/aug-cc-pVQZ

BH RHF at 4.6 Angstrom

0 1
 B	0.0	0.0	0.0
 H	4.6	0.0	0.0




