%oldchk=BH-4.0-RHF-G.chk
%chk=BH-4.0-CCSD-G.chk
#p RHF/aug-cc-pVQZ guess=read CCSD=FC

BH RHF at 4.0 Angstrom

0 1
 B	0.0	0.0	0.0
 H	4.0	0.0	0.0




