%oldchk=BH-5.8-RHF-G.chk
%chk=BH-5.8-CCSD-G.chk
#p RHF/aug-cc-pVQZ guess=read CCSD=FC

BH RHF at 5.8 Angstrom

0 1
 B	0.0	0.0	0.0
 H	5.8	0.0	0.0




