! RHF CCSD aug-cc-pVQZ VeryTightSCF

*xyz 0 1
 B	0.0	0.0	0.0
 H	5.4	0.0	0.0
*