%chk=BH-5.2-RHF-G.chk
#p RHF/aug-cc-pVQZ

BH RHF at 5.2 Angstrom

0 1
 B	0.0	0.0	0.0
 H	5.2	0.0	0.0




