%oldchk=BH-5.4-RHF-G.chk
%chk=BH-5.4-CCSD-G.chk
#p RHF/aug-cc-pVQZ guess=read CCSD=FC

BH RHF at 5.4 Angstrom

0 1
 B	0.0	0.0	0.0
 H	5.4	0.0	0.0




