%chk=BH-6.0-RHF-G.chk
#p RHF/aug-cc-pVQZ

BH RHF at 6.0 Angstrom

0 1
 B	0.0	0.0	0.0
 H	6.0	0.0	0.0




