%chk=BH-0.9-G.chk
#p UHF/aug-cc-pVQZ guess=mix stable=opt

BH UHF at 0.9 Angstrom

0 1
 B	0.0	0.0	0.0
 H	0.9	0.0	0.0




