! UHF aug-cc-pVQZ pal8 TightSCF

%scf
	STABPerform	True
	STABRestartUHFifUnstable	True
end

*xyz 0 1
 B	0.0	0.0	0.0
 H	1.8	0.0	0.0
*
