%chk=BH-1.8-G.chk
#p UHF/aug-cc-pVQZ guess=mix stable=opt

BH UHF at 1.8 Angstrom

0 1
 B	0.0	0.0	0.0
 H	1.8	0.0	0.0




