! UHF aug-cc-pVQZ pal8 VeryTightSCF

%scf
	STABPerform	True
	STABRestartUHFifUnstable	True
end

*xyz 0 1
 B	0.0	0.0	0.0
 H	1.1	0.0	0.0
*
