! UHF aug-cc-pVQZ pal8 TightSCF

!MOread
%moinp "BH-2.2-O.gbw"

%scf
	STABPerform	True
	STABRestartUHFifUnstable	True
end

*xyz 0 1
 B	0.0	0.0	0.0
 H	2.0	0.0	0.0
*
