%chk=BH-3.2-G.chk
#p UHF/aug-cc-pVQZ guess=mix stable=opt

BH UHF at 3.2 Angstrom

0 1
 B	0.0	0.0	0.0
 H	3.2	0.0	0.0




