%chk=BH-3.8-G.chk
#p UHF/aug-cc-pVQZ guess=mix stable=opt

BH UHF at 3.8 Angstrom

0 1
 B	0.0	0.0	0.0
 H	3.8	0.0	0.0




