%chk=BH-4.6-G.chk
#p UHF/aug-cc-pVQZ guess=mix stable=opt SCF=MaxCycle=500

BH UHF at 4.6 Angstrom

0 1
 B	0.0	0.0	0.0
 H	4.6	0.0	0.0




