%chk=BH-5.6-G.chk
#p UHF/aug-cc-pVQZ guess=mix stable=opt

BH UHF at 5.6 Angstrom

0 1
 B	0.0	0.0	0.0
 H	5.6	0.0	0.0




