%chk=BH-5.8-G.chk
#p UHF/aug-cc-pVQZ guess=mix stable=opt

BH UHF at 5.8 Angstrom

0 1
 B	0.0	0.0	0.0
 H	5.8	0.0	0.0




