! RHF MP2 cc-pVTZ pal8

*xyz 0 1
  C   -2.58160084178652      0.85828318402722      0.00080156853200
  C   -1.19423075211164      0.86536269424988      0.00098054343823
  C   -0.48184821662044      2.06241189554032      0.00026969425476
  C   -1.19416423453283      3.25950055784776     -0.00062846767782
  C   -2.58153392669185      3.26665691565461     -0.00081697160061
  C   -3.26678503079028      2.06248916662553      0.00011048883372
  H   -3.12770213250513     -0.07395399173453      0.00130680306569
  H   -0.65977525765669     -0.07535746059244      0.00163025822144
  H   -0.65965646486742      4.20019103552288     -0.00124317258025
  H   -3.12758341376550      4.19892427265791     -0.00156478051965
  C   1.01725661812022      2.06237059889130      0.00078164411047
  C   1.72979440054537      2.06154569389869     -1.19627740111421
  C   1.72939598080617      2.06315592590829      1.19791401450705
  C   3.11712542600413      2.06150240870885     -1.20321779640295
  H   1.19530943085168      2.06092784488391     -2.13697707431363
  C   3.11678391264014      2.06312227056329      1.20519298930278
  H   1.19468583944535      2.06380338066680      2.13849130201270
  C   3.80213032469577      2.06229337795585      0.00112229842861
  H   3.66351142389813      2.06086028564820     -2.13528741294019
  H   3.66287659702490      2.06373408667386      2.13743659617327
  Cl  -5.00747133311841      2.06253716373157     -0.00043793949156
  Cl  5.54284890041484      2.06224511267023      0.00136880576014
*
