%chk=BH-0.9-CCSD_T-G.chk
#p RHF/aug-cc-pVQZ CCSD(T,FC)

BH CCSD(T) at 0.9 Angstrom

0 1
 B	0.0	0.0	0.0
 H	0.9	0.0	0.0




