%chk=BH-0.8-CCSD_T-G.chk
#p RHF/aug-cc-pVQZ CCSD(T,FC)

BH CCSD(T) at 0.8 Angstrom

0 1
 B	0.0	0.0	0.0
 H	0.8	0.0	0.0




