%chk=BH-1.3-CCSD_T-G.chk
#p RHF/aug-cc-pVQZ CCSD(T,FC)

BH CCSD(T) at 1.3 Angstrom

0 1
 B	0.0	0.0	0.0
 H	1.3	0.0	0.0




