%chk=BH-1.1-CCSD_T-G.chk
#p RHF/aug-cc-pVQZ CCSD(T,FC)

BH CCSD(T) at 1.1 Angstrom

0 1
 B	0.0	0.0	0.0
 H	1.1	0.0	0.0




