%chk=BH-1.4-CCSD_T-G.chk
#p RHF/aug-cc-pVQZ CCSD(T,FC)

BH CCSD(T) at 1.4 Angstrom

0 1
 B	0.0	0.0	0.0
 H	1.4	0.0	0.0




