%chk=BH-2.4-CCSD_T-G.chk
#p RHF/aug-cc-pVQZ CCSD(T,FC)

BH CCSD(T) at 2.4 Angstrom

0 1
 B	0.0	0.0	0.0
 H	2.4	0.0	0.0




