%chk=BH-2.8-CCSD_T-G.chk
#p RHF/aug-cc-pVQZ CCSD(T,FC)

BH CCSD(T) at 2.8 Angstrom

0 1
 B	0.0	0.0	0.0
 H	2.8	0.0	0.0




