%chk=BH-2.6-CCSD_T-G.chk
#p RHF/aug-cc-pVQZ CCSD(T,FC)

BH CCSD(T) at 2.6 Angstrom

0 1
 B	0.0	0.0	0.0
 H	2.6	0.0	0.0




