! RHF CCSD(T) aug-cc-pVQZ VeryTightSCF

*xyz 0 1
 B	0.0	0.0	0.0
 H	2.4	0.0	0.0
*