! RHF CCSD(T) aug-cc-pVQZ VeryTightSCF

*xyz 0 1
 B	0.0	0.0	0.0
 H	3.2	0.0	0.0
*