%chk=BH-3.2-CCSD_T-G.chk
#p RHF/aug-cc-pVQZ CCSD(T,FC)

BH CCSD(T) at 3.2 Angstrom

0 1
 B	0.0	0.0	0.0
 H	3.2	0.0	0.0




