%chk=BH-4.4-CCSD_T-G.chk
#p RHF/aug-cc-pVQZ CCSD(T,FC)

BH CCSD(T) at 4.4 Angstrom

0 1
 B	0.0	0.0	0.0
 H	4.4	0.0	0.0




