! RHF CCSD(T) aug-cc-pVQZ VeryTightSCF

*xyz 0 1
 B	0.0	0.0	0.0
 H	4.6	0.0	0.0
*