! RHF CCSD(T) aug-cc-pVQZ VeryTightSCF

*xyz 0 1
 B	0.0	0.0	0.0
 H	5.8	0.0	0.0
*