%chk=BH-6.0-CCSD_T-G.chk
#p RHF/aug-cc-pVQZ CCSD(T,FC)

BH CCSD(T) at 6.0 Angstrom

0 1
 B	0.0	0.0	0.0
 H	6.0	0.0	0.0




