! RHF MP2 cc-pvtz pal8
! NoFrozenCore

%mp2    
    density relaxed
end

%loc
    LocMet  PM
end

*xyz 0 1
 C                 -1.15681380    1.48653371    0.56686282
 H                 -2.22291085    1.49025823    0.47563119
 C                 -0.48444836    2.65507368    0.70472539
 H                 -1.01967817    3.58142066    0.72234117
 H                  0.58164847    2.65134899    0.79595962
 N                 -0.42149782    0.21388900    0.54265870
 H                 -0.33518276   -0.13898379    1.47434025
 H                 -0.91811432   -0.44738115   -0.01956354
*
