%chk=propeneSP.chk
%nproc=4
#p RHF/6-31G(d) 

Propene SP 6-31G(d)

0 1
 C                 1.273694     0.103415    0.000000
 C                 0.000000     0.519712    0.000000
 C                -1.131346    -0.495403    0.000000
 H                 1.496403    -0.953373    0.000000
 H                 2.077545     0.824680    0.000000
 H                -0.222709     1.576500    0.000000
 H                -2.088089     0.026845    0.000000
 H                -1.058621    -1.120498    0.889981
 H                -1.058621    -1.120498   -0.889981




