! Opt def2-SVP pal8

# CH2 OPT

*xyz 0 3
 C                 -0.53333164    0.26468350    0.00000000
 H                 -0.08562166   -0.70714765    0.00000000
 H                 -1.59881709    0.36287086    0.00000000
*

