%chk=C60-sym.chk
%nproc=8
%mem=20GB
#p RHF/cc-pVDZ sym=loose

C60 SP

0 1
 C                  0.17823418   -0.42164323    0.09565119
 C                  1.71823511   -0.42159910    0.09557290
 C                  2.39581061    0.75205293    0.09551743
 C                  1.62577918    2.08571050    0.09554027
 C                  0.27057274    2.08567496    0.09560319
 C                 -0.49939037    0.75197568    0.09566016
 C                 -0.29764057   -1.58554271   -0.79343964
 C                  0.94824467   -2.30482350   -1.34298703
 C                  2.19411771   -1.58546950   -0.79354640
 C                  3.29047211   -1.43602853   -1.57600328
 C                  3.64167728    0.92187162   -0.79363343
 C                  2.39573304    3.07979634   -0.79359880
 C                  1.71807245    3.95454959   -1.57601146
 C                  0.17807323    3.95450284   -1.57594943
 C                 -0.49948258    3.07971459   -0.79350035
 C                 -1.74536573    2.36036611   -1.34296092
 C                 -1.74530211    0.92174422   -0.79343253
 C                 -2.16407157   -0.10248057   -1.57583829
 C                 -1.39404387   -1.43614394   -1.57584190
 C                  0.94821837   -2.78840832   -2.60897537
 C                 -0.29770920   -2.61863957   -3.49806243
 C                 -1.39408517   -1.98566616   -3.01446536
 C                 -2.16414938   -0.99163127   -3.90356997
 C                 -2.64002792    0.17224245   -3.01444935
 C                 -2.64009316    1.43823148   -3.49803454
 C                 -2.16420539    2.60212618   -2.60894011
 C                 -1.39425314    3.59619146   -3.49808944
 C                 -0.29787072    4.22921858   -3.01456765
 C                  3.64162490    2.36049587   -1.34314427
 C                  2.19382128    3.19618464   -5.71927447
 C                  3.29022186    3.04678758   -4.93687678
 C                  4.06025620    1.71312889   -4.93687731
 C                  3.64148891    0.68889917   -5.71927852
 C                  2.39556326    0.85866399   -6.60836629
 C                  0.17794164    2.03224124   -6.60829905
 C                 -0.29793775    3.19611649   -5.71917848
 C                  0.94794358    3.91547025   -5.16973199
 C                  0.94798075    4.39904412   -3.90374283
 C                  2.19389569    4.22928771   -3.01466412
 C                  3.29026522    3.59630751   -3.49826617
 C                  4.53621920    1.43839705   -3.49826888
 C                  4.53628351    0.17240824   -3.01469400
 C                  4.06040419   -0.99148381   -3.90378394
 C                  3.64156049   -0.74972201   -5.16976724
 C                  2.39566533   -1.46907298   -5.71922364
 C                  1.62559666   -0.47504074   -6.60832906
 C                  0.27039476   -0.47507361   -6.60827661
 C                 -0.49962950    0.85858503   -6.60825947
 C                 -1.39429089    3.04667285   -4.93671591
 C                 -2.16426181    1.71297411   -4.93667364
 C                 -1.74548392    0.68876342   -5.71909678
 C                 -1.74542598   -0.74985794   -5.16957309
 C                 -0.49954852   -1.46914680   -5.71912001
 C                  0.17810642   -2.34389385   -4.93670439
 C                  1.71811031   -2.34386028   -4.93675859
 C                  2.19406394   -2.61858453   -3.49813556
 C                  3.29044415   -1.98556035   -3.01462044
 C                  4.06033885    2.60227132   -2.60915116
 C                  4.06045287   -0.10233677   -1.57605659
 C                  1.71793581    2.03228443   -6.60835736




