#p UM062X/6-31G(d) nosymm guess=mix

tBuOOH guess=mix

0 1
 C                 -3.59509438   -0.40108447    0.45021209
 C                 -2.07308138   -0.37481447    0.35838909
 H                 -3.98463038    0.62010353    0.49161709
 H                 -4.02037538   -0.90135147   -0.42275491
 H                 -3.91242738   -0.93572847    1.35096809
 C                 -1.49025538   -1.78252647    0.27088009
 C                 -1.46081538    0.40500353    1.51712809
 H                 -0.40235038   -1.73512147    0.15501909
 H                 -1.71505438   -2.34531947    1.18173609
 H                 -1.91675238   -2.32379847   -0.57771891
 H                 -1.71481438   -0.07708447    2.46539209
 H                 -0.37176638    0.44174953    1.42258609
 H                 -1.84548138    1.42840853    1.52944109
 O                 -1.66577638    0.40114453   -0.78069891
 O                 -2.36682562   -0.40606353   -2.35135009
 H                 -1.55593562   -0.76398453   -2.74739209




