#p UHF/STO-3G nosymm guess=mix

H2 UHF SP guess=mix

0 1
H   0.0     0.0     0.0
H   2.0     0.0     0.0





