%chk=/apps/users/lcz/exe4/task4/O2/triplet/O2.chk
#p UHF/cc-pVDZ nosymm guess=mix stable=opt

O2 SP

0 3
O       0.0     0.0     0.0
O       0.0     0.0     1.25





