%oldchk=BH-0.8-UHF-G.chk
%chk=BH-0.8-UCCSD-G.chk
#p UHF/aug-cc-pVQZ guess=read CCSD=FC

BH UCCSD at 0.8 Angstrom

0 1
 B	0.0	0.0	0.0
 H	0.8	0.0	0.0




