%oldchk=BH-1.1-UHF-G.chk
%chk=BH-1.1-UCCSD-G.chk
#p UHF/aug-cc-pVQZ guess=read CCSD=FC

BH UCCSD at 1.1 Angstrom

0 1
 B	0.0	0.0	0.0
 H	1.1	0.0	0.0




