! UHF CCSD aug-cc-pVQZ VeryTightSCF MOread

%moinp "BH-1.0-UHF-O.gbw"

*xyz 0 1
 B	0.0	0.0	0.0
 H	1.0	0.0	0.0
*