%oldchk=BH-1.0-UHF-G.chk
%chk=BH-1.0-UCCSD-G.chk
#p UHF/aug-cc-pVQZ guess=read CCSD=FC

BH UCCSD at 1.0 Angstrom

0 1
 B	0.0	0.0	0.0
 H	1.0	0.0	0.0




