%chk=BH-2.8-UHF-G.chk
#p UHF/aug-cc-pVQZ guess=mix stable=opt

BH UHF at 2.8 Angstrom

0 1
 B	0.0	0.0	0.0
 H	2.8	0.0	0.0




