! UHF CCSD aug-cc-pVQZ VeryTightSCF MOread

%moinp "BH-2.4-UHF-O.gbw"

*xyz 0 1
 B	0.0	0.0	0.0
 H	2.4	0.0	0.0
*