! UHF CCSD aug-cc-pVQZ VeryTightSCF MOread

%moinp "BH-2.6-UHF-O.gbw"

*xyz 0 1
 B	0.0	0.0	0.0
 H	2.6	0.0	0.0
*