%chk=BH-3.0-UHF-G.chk
#p UHF/aug-cc-pVQZ guess=mix stable=opt

BH UHF at 3.0 Angstrom

0 1
 B	0.0	0.0	0.0
 H	3.0	0.0	0.0




