%oldchk=BH-3.6-UHF-G.chk
%chk=BH-3.6-UCCSD-G.chk
#p UHF/aug-cc-pVQZ guess=read CCSD=FC

BH UCCSD at 3.6 Angstrom

0 1
 B	0.0	0.0	0.0
 H	3.6	0.0	0.0




