%oldchk=BH-4.6-UHF-G.chk
%chk=BH-4.6-UCCSD-G.chk
#p UHF/aug-cc-pVQZ guess=read CCSD=FC

BH UCCSD at 4.6 Angstrom

0 1
 B	0.0	0.0	0.0
 H	4.6	0.0	0.0




