! UHF CCSD aug-cc-pVQZ VeryTightSCF MOread

%moinp "BH-4.8-UHF-O.gbw"

*xyz 0 1
 B	0.0	0.0	0.0
 H	4.8	0.0	0.0
*