%chk=BH-0.8-UHF-G.chk
#p UHF/aug-cc-pVQZ guess=mix stable=opt

BH UHF at 0.8 Angstrom

0 1
 B	0.0	0.0	0.0
 H	0.8	0.0	0.0




