! UHF MP2 aug-cc-pVQZ pal8 VeryTightSCF MOread

%moinp "BH-1.3-UHF-O.gbw"

*xyz 0 1
 B	0.0	0.0	0.0
 H	1.3	0.0	0.0
*