%oldchk=BH-1.0-UHF-G.chk
%chk=BH-1.0-UMP2-G.chk
#p UHF/aug-cc-pVQZ MP2=FC guess=read 

BH UHF at 1.0 Angstrom

0 1
 B	0.0	0.0	0.0
 H	1.0	0.0	0.0




