! UHF aug-cc-pVQZ pal8 VeryTightSCF

! MOread
%moinp "BH-2.4-UHF-O.gbw"

%scf
	STABPerform	True
	STABRestartUHFifUnstable	True
end

*xyz 0 1
 B	0.0	0.0	0.0
 H	2.2	0.0	0.0
*
