%oldchk=BH-2.4-UHF-G.chk
%chk=BH-2.4-UMP2-G.chk
#p UHF/aug-cc-pVQZ MP2=FC guess=read 

BH UHF at 2.4 Angstrom

0 1
 B	0.0	0.0	0.0
 H	2.4	0.0	0.0




