%oldchk=BH-2.6-UHF-G.chk
%chk=BH-2.6-UMP2-G.chk
#p UHF/aug-cc-pVQZ MP2=FC guess=read 

BH UHF at 2.6 Angstrom

0 1
 B	0.0	0.0	0.0
 H	2.6	0.0	0.0




