%oldchk=BH-3.0-UHF-G.chk
%chk=BH-3.0-UMP2-G.chk
#p UHF/aug-cc-pVQZ MP2=FC guess=read 

BH UHF at 3.0 Angstrom

0 1
 B	0.0	0.0	0.0
 H	3.0	0.0	0.0




