%oldchk=BH-3.2-UHF-G.chk
%chk=BH-3.2-UMP2-G.chk
#p UHF/aug-cc-pVQZ MP2=FC guess=read 

BH UHF at 3.2 Angstrom

0 1
 B	0.0	0.0	0.0
 H	3.2	0.0	0.0




