! UHF MP2 aug-cc-pVQZ pal8 VeryTightSCF MOread

%moinp "BH-3.2-UHF-O.gbw"

*xyz 0 1
 B	0.0	0.0	0.0
 H	3.2	0.0	0.0
*