! UHF MP2 aug-cc-pVQZ pal8 VeryTightSCF MOread

%moinp "BH-4.4-UHF-O.gbw"

*xyz 0 1
 B	0.0	0.0	0.0
 H	4.4	0.0	0.0
*