%oldchk=BH-4.8-UHF-G.chk
%chk=BH-4.8-UMP2-G.chk
#p UHF/aug-cc-pVQZ MP2=FC guess=read 

BH UHF at 4.8 Angstrom

0 1
 B	0.0	0.0	0.0
 H	4.8	0.0	0.0




