%chk=BH-4.4-UHF-G.chk
#p UHF/aug-cc-pVQZ guess=mix stable=opt

BH UHF at 4.4 Angstrom

0 1
 B	0.0	0.0	0.0
 H	4.4	0.0	0.0




