! UHF MP2 aug-cc-pVQZ pal8 VeryTightSCF MOread

%moinp "BH-6.0-UHF-O.gbw"

*xyz 0 1
 B	0.0	0.0	0.0
 H	6.0	0.0	0.0
*