%chk=BH-6.0-UHF-G.chk
#p UHF/aug-cc-pVQZ guess=mix stable=opt

BH UHF at 6.0 Angstrom

0 1
 B	0.0	0.0	0.0
 H	6.0	0.0	0.0




