%chk=BH-1.2-G.chk
#p RHF/aug-cc-pVQZ

BH RHF at 1.2 Angstrom

0 1
 B	0.0	0.0	0.0
 H	1.2	0.0	0.0




