%chk=BH-1.6-G.chk
#p RHF/aug-cc-pVQZ

BH RHF at 1.6 Angstrom

0 1
 B	0.0	0.0	0.0
 H	1.6	0.0	0.0




