! RHF aug-cc-pVQZ pal8 VeryTightSCF UseSym

*xyz 0 1
 B	0.0	0.0	0.0
 H	1.4	0.0	0.0
*