%chk=BH-2.0-G.chk
#p RHF/aug-cc-pVQZ

BH RHF at 2.0 Angstrom

0 1
 B	0.0	0.0	0.0
 H	2.0	0.0	0.0




