%chk=BH-4.8-G.chk
#p RHF/aug-cc-pVQZ

BH RHF at 4.8 Angstrom

0 1
 B	0.0	0.0	0.0
 H	4.8	0.0	0.0




