%chk=BH-4.0-G.chk
#p RHF/aug-cc-pVQZ

BH RHF at 4.0 Angstrom

0 1
 B	0.0	0.0	0.0
 H	4.0	0.0	0.0




