%chk=BH-4.2-G.chk
#p RHF/aug-cc-pVQZ

BH RHF at 4.2 Angstrom

0 1
 B	0.0	0.0	0.0
 H	4.2	0.0	0.0




